0 1925
1 1805
2 1717
3 1680
4 1621
5 1539
6 1467
7 1397
8 1291
9 1249
10 1205
11 1183
12 1173
13 1152
14 1140
15 1138
16 1116
17 1115
18 1100
19 1088
20 1035
21 1025
22 1021
23 1011
24 1000
25 994
26 989
27 989
28 985
29 985
30 982
31 975
32 972
33 962
34 956
35 939
36 939
37 925
38 925
39 918
40 918
41 918
42 918
43 918
44 917
45 917
46 917
47 917
48 913
49 913
50 901
51 901
52 901
53 901
54 901
55 901
56 901
57 901
58 901
59 901
60 901
61 901
62 901
63 901
64 901
65 901
66 901
67 901
68 901
69 901
70 901
71 901
72 901
73 901
74 901
75 901
76 901
77 901
78 901
79 901
80 901
81 901
82 901
83 901
84 901
85 901
86 901
87 901
88 901
89 901
90 901
91 901
92 901
93 901
94 901
95 901
96 901
97 901
98 901
99 901
100 901
101 901
102 901
103 901
104 901
105 901
106 901
107 901
108 901
109 901
110 901
111 901
112 901
113 901
114 901
115 901
116 901
117 901
118 901
119 901
120 901
121 901
122 901
123 901
124 901
125 901
126 901
127 901
128 901
129 901
130 901
131 901
132 901
133 901
134 901
135 901
136 901
137 901
138 901
139 901
140 901
141 901
142 901
143 901
144 901
145 901
146 901
147 901
148 901
149 901
150 901
151 901
152 901
153 901
154 901
155 901
156 901
157 901
158 901
159 901
160 901
161 901
162 901
163 901
164 901
165 901
166 901
167 901
168 901
169 901
170 901
171 901
172 901
173 901
174 901
175 901
176 901
177 901
178 901
179 901
180 901
181 901
182 901
183 901
184 901
185 901
186 901
187 901
188 901
189 901
190 901
191 901
192 901
193 901
194 901
195 901
196 901
197 901
198 901
199 901
200 901
201 901
202 901
203 901
204 901
205 901
206 901
207 901
208 901
209 901
210 901
211 901
212 901
213 901
214 901
215 901
216 901
217 901
218 901
219 901
220 901
221 901
222 901
223 901
224 901
225 901
226 901
227 901
228 901
229 901
230 901
231 901
232 901
233 901
234 901
235 901
236 901
237 901
238 901
239 901
240 901
241 901
242 901
243 901
244 901
245 901
246 901
247 901
248 901
249 901
250 901
251 901
252 901
253 901
254 901
255 901
256 901
257 901
258 901
259 901
260 901
261 901
262 901
263 901
264 901
265 901
266 901
267 901
268 901
269 901
270 901
271 901
272 901
273 901
274 901
275 901
276 901
277 901
278 901
279 901
280 901
281 901
282 901
283 901
284 901
285 901
286 901
287 901
288 901
289 901
290 901
291 901
292 901
293 901
294 901
295 901
296 901
297 901
298 901
299 901
300 901
301 901
302 901
303 901
304 901
305 901
306 901
307 901
308 901
309 901
310 901
311 901
312 901
313 901
314 901
315 901
316 901
317 901
318 901
319 901
320 901
321 901
322 901
323 901
324 901
325 901
326 901
327 901
328 901
329 901
330 901
331 901
332 901
333 901
334 901
335 901
336 901
337 901
338 901
339 901
340 901
341 901
342 901
343 901
344 901
345 901
346 901
347 901
348 901
349 901
350 901
351 901
352 901
353 901
354 901
355 901
356 901
357 901
358 901
359 901
360 901
361 901
362 901
363 901
364 901
365 901
366 901
367 901
368 901
369 901
370 901
371 901
372 901
373 901
374 901
375 901
376 901
377 901
378 901
379 901
380 901
381 901
382 901
383 901
384 901
385 901
386 901
387 901
388 901
389 901
390 901
391 901
392 901
393 901
394 901
395 901
396 901
397 901
398 901
399 901
400 901
401 901
402 901
403 901
404 901
405 901
406 901
407 901
408 901
409 901
410 901
411 901
412 901
413 901
414 901
415 901
416 901
417 901
418 901
419 901
420 901
421 901
422 901
423 901
424 901
425 901
426 901
427 901
428 901
429 901
430 901
431 901
432 901
433 901
434 901
435 901
436 901
437 901
438 901
439 901
440 901
441 901
442 901
443 901
444 901
445 901
446 901
447 901
448 901
449 901
450 901
451 901
452 901
453 901
454 901
455 901
456 901
457 901
458 901
459 901
460 901
461 901
462 901
463 901
464 901
465 901
466 901
467 901
468 901
469 901
470 901
471 901
472 901
473 901
474 901
475 901
476 901
477 901
478 901
479 901
480 901
481 901
482 901
483 901
484 901
485 901
486 901
487 901
488 901
489 901
490 901
491 901
492 901
493 901
494 901
495 901
496 901
497 901
498 901
499 901
500 901
501 901
502 901
503 901
504 901
505 901
506 901
507 901
508 901
509 901
510 901
511 901
512 901
513 901
514 901
515 901
516 901
517 901
518 901
519 901
520 901
521 901
522 901
523 901
524 901
525 901
526 901
527 901
528 901
529 901
530 901
531 901
532 901
533 901
534 901
535 901
536 901
537 901
538 901
539 901
540 901
541 901
542 901
543 901
544 901
545 901
546 901
547 901
548 901
549 901
550 901
551 901
552 901
553 901
554 901
555 901
556 901
557 901
558 901
559 901
560 901
561 901
562 901
563 901
564 901
565 901
566 901
567 901
568 901
569 901
570 901
571 901
572 901
573 901
574 901
575 901
576 901
577 901
578 901
579 901
580 901
581 901
582 901
583 901
584 901
585 901
586 901
587 901
588 901
589 901
590 901
591 901
592 901
593 901
594 901
595 901
596 901
597 901
598 901
599 901
600 901
601 901
602 901
603 901
604 901
605 901
606 901
607 901
608 901
609 901
610 901
611 901
612 901
613 901
614 901
615 901
616 901
617 901
618 901
619 901
620 901
621 901
622 901
623 901
624 901
625 901
626 901
627 901
628 901
629 901
630 901
631 901
632 901
633 901
634 901
635 901
636 901
637 901
638 901
639 901
640 901
641 901
642 901
643 901
644 901
645 901
646 901
647 901
648 901
649 901
650 901
651 901
652 901
653 901
654 901
655 901
656 901
657 901
658 901
659 901
660 901
661 901
662 901
663 901
664 901
665 901
666 901
667 901
668 901
669 901
670 901
671 901
672 901
673 901
674 901
675 901
676 901
677 901
678 901
679 901
680 901
681 901
682 901
683 901
684 901
685 901
686 901
687 901
688 901
689 901
690 901
691 901
692 901
693 901
694 901
695 901
696 901
697 901
698 901
699 901
700 901
701 901
702 901
703 901
704 901
705 901
706 901
707 901
708 901
709 901
710 901
711 901
712 901
713 901
714 901
715 901
716 901
717 901
718 901
719 901
720 901
721 901
722 901
723 901
724 901
725 901
726 901
727 901
728 901
729 901
730 901
731 901
732 901
733 901
734 901
735 901
736 901
737 901
738 901
739 901
740 901
741 901
742 901
743 901
744 901
745 901
746 901
747 901
748 901
749 901
750 901
751 901
752 901
753 901
754 901
755 901
756 901
757 901
758 901
759 901
760 901
761 901
762 901
763 901
764 901
765 901
766 901
767 901
768 901
769 901
770 901
771 901
772 901
773 901
774 901
775 901
776 901
777 901
778 901
779 901
780 901
781 901
782 901
783 901
784 901
785 901
786 901
787 901
788 901
789 901
790 901
791 901
792 901
793 901
794 901
795 901
796 901
797 901
798 901
799 901
800 901
801 901
802 901
803 901
804 901
805 901
806 901
807 901
808 901
809 901
810 901
811 901
812 901
813 901
814 901
815 901
816 901
817 901
818 901
819 901
820 901
821 901
822 901
823 901
824 901
825 901
826 901
827 901
828 901
829 901
830 901
831 901
832 901
833 901
834 901
835 901
836 901
837 901
838 901
839 901
840 901
841 901
842 901
843 901
844 901
845 901
846 901
847 901
848 901
849 901
850 901
851 901
852 901
853 901
854 901
855 901
856 901
857 901
858 901
859 901
860 901
861 901
862 901
863 901
864 901
865 901
866 901
867 901
868 901
869 901
870 901
871 901
872 901
873 901
874 901
875 901
876 901
877 901
878 901
879 901
880 901
881 901
882 901
883 901
884 901
885 901
886 901
887 901
888 901
889 901
890 901
891 901
892 901
893 901
894 901
895 901
896 901
897 901
898 901
899 901
900 901
901 901
902 901
903 901
904 901
905 901
906 901
907 901
908 901
909 901
910 901
911 901
912 901
913 901
914 901
915 901
916 901
917 901
918 901
919 901
920 901
921 901
922 901
923 901
924 901
925 901
926 901
927 901
928 901
929 901
930 901
931 901
932 901
933 901
934 901
935 901
936 901
937 901
938 901
939 901
940 901
941 901
942 901
943 901
944 901
945 901
946 901
947 901
948 901
949 901
950 901
951 901
952 901
953 901
954 901
955 901
956 901
957 901
958 901
959 901
960 901
961 901
962 901
963 901
964 901
965 901
966 901
967 901
968 901
969 901
970 901
971 901
972 901
973 901
974 901
975 901
976 901
977 901
978 901
979 901
980 901
981 901
982 901
983 901
984 901
985 901
986 901
987 901
988 901
989 901
990 901
991 901
992 901
993 901
994 901
995 901
996 901
997 901
998 901
999 901
Best: [[21,26,6,28,25],
       [27,8,3,4,24,19,16,11],
       [2,22,32,20,18,14],
       [13,17,31],
       [15,7,29,5,12,9,10,23,30]], fitness: 901
